Linear/lin_ivlbc_2.txt
0 seconds 
<gurobi.Var p0_0_9 (value 1.0)>
<gurobi.Var p0_1_12 (value 1.0)>
<gurobi.Var p0_1_13 (value 1.0)>
<gurobi.Var p0_1_14 (value 1.0)>
<gurobi.Var x0_38 (value 1.0)>
<gurobi.Var x0_39 (value 1.0)>
<gurobi.Var A0_9 (value 1.0)>
<gurobi.Var y0_38 (value 1.0)>
<gurobi.Var z0_62 (value 1.0)>
<gurobi.Var x1_50 (value 1.0)>
<gurobi.Var d0_101 (value 1.0)>
<gurobi.Var x1_54 (value 1.0)>
<gurobi.Var d0_109 (value 1.0)>
<gurobi.Var x1_58 (value 1.0)>
<gurobi.Var d0_117 (value 1.0)>
<gurobi.Var A1_12 (value 1.0)>
<gurobi.Var y1_48 (value 1.0)>
<gurobi.Var y1_49 (value 1.0)>
<gurobi.Var y1_50 (value 1.0)>
<gurobi.Var y1_51 (value 1.0)>
<gurobi.Var A1_13 (value 1.0)>
<gurobi.Var y1_54 (value 1.0)>
<gurobi.Var y1_55 (value 1.0)>
<gurobi.Var A1_14 (value 1.0)>
<gurobi.Var y1_59 (value 1.0)>
<gurobi.Var z1_14 (value 1.0)>
<gurobi.Var z1_15 (value 1.0)>
<gurobi.Var z1_27 (value 1.0)>
<gurobi.Var z1_48 (value 1.0)>
<gurobi.Var z1_49 (value 1.0)>
<gurobi.Var z1_50 (value 1.0)>
<gurobi.Var z1_51 (value 1.0)>
<gurobi.Var x2_2 (value 1.0)>
<gurobi.Var d1_5 (value 1.0)>
<gurobi.Var x2_3 (value 1.0)>
<gurobi.Var d1_7 (value 1.0)>
<gurobi.Var x2_6 (value 1.0)>
<gurobi.Var d1_13 (value 1.0)>
<gurobi.Var x2_7 (value 1.0)>
<gurobi.Var d1_15 (value 1.0)>
<gurobi.Var x2_10 (value 1.0)>
<gurobi.Var d1_21 (value 1.0)>
<gurobi.Var x2_11 (value 1.0)>
<gurobi.Var d1_23 (value 1.0)>
<gurobi.Var x2_19 (value 1.0)>
<gurobi.Var d1_39 (value 1.0)>
<gurobi.Var x2_23 (value 1.0)>
<gurobi.Var d1_47 (value 1.0)>
<gurobi.Var x2_31 (value 1.0)>
<gurobi.Var d1_63 (value 1.0)>
<gurobi.Var x2_52 (value 1.0)>
<gurobi.Var d1_105 (value 1.0)>
<gurobi.Var x2_53 (value 1.0)>
<gurobi.Var d1_107 (value 1.0)>
<gurobi.Var x2_54 (value 1.0)>
<gurobi.Var d1_109 (value 1.0)>
<gurobi.Var x2_55 (value 1.0)>
<gurobi.Var d1_111 (value 1.0)>
<gurobi.Var x2_56 (value 1.0)>
<gurobi.Var d1_113 (value 1.0)>
<gurobi.Var x2_57 (value 1.0)>
<gurobi.Var d1_115 (value 1.0)>
<gurobi.Var x2_58 (value 1.0)>
<gurobi.Var d1_117 (value 1.0)>
<gurobi.Var x2_59 (value 1.0)>
<gurobi.Var d1_119 (value 1.0)>
<gurobi.Var x2_60 (value 1.0)>
<gurobi.Var d1_121 (value 1.0)>
<gurobi.Var x2_61 (value 1.0)>
<gurobi.Var d1_123 (value 1.0)>
<gurobi.Var x2_62 (value 1.0)>
<gurobi.Var d1_125 (value 1.0)>
<gurobi.Var x2_63 (value 1.0)>
<gurobi.Var d1_127 (value 1.0)>
