Linear/lin_ivlbc_2.log

Gurobi 10.0.2 (mac64[rosetta2], Python) logging started Tue Aug  8 00:11:51 2023

Set parameter Username
Set parameter LogFile to value "lin_ivlbc_2.log"
Academic license - for non-commercial use only - expires 2024-03-21
Read LP format model from file lin_ivlbc_2.lp
Reading time = 0.00 seconds
: 993 rows, 800 columns, 5632 nonzeros
Gurobi Optimizer version 10.0.2 build v10.0.2rc0 (mac64[rosetta2])

CPU model: Apple M2 Pro
Thread count: 12 physical cores, 12 logical processors, using up to 12 threads

Optimize a model with 993 rows, 800 columns and 5632 nonzeros
Model fingerprint: 0xc2f32d66
Variable types: 0 continuous, 800 integer (800 binary)
Coefficient statistics:
  Matrix range     [1e+00, 6e+00]
  Objective range  [1e+00, 1e+00]
  Bounds range     [1e+00, 1e+00]
  RHS range        [1e+00, 1e+00]
Presolve removed 192 rows and 384 columns
Presolve time: 0.01s
Presolved: 801 rows, 416 columns, 4928 nonzeros
Variable types: 0 continuous, 416 integer (352 binary)
Found heuristic solution: objective 32.0000000

Root relaxation: objective 1.818182e-01, 291 iterations, 0.00 seconds (0.00 work units)

    Nodes    |    Current Node    |     Objective Bounds      |     Work
 Expl Unexpl |  Obj  Depth IntInf | Incumbent    BestBd   Gap | It/Node Time

     0     0    0.18182    0   26   32.00000    0.18182  99.4%     -    0s
H    0     0                       4.0000000    0.18182  95.5%     -    0s
     0     0    0.18182    0   33    4.00000    0.18182  95.5%     -    0s
     0     0    0.39394    0   33    4.00000    0.39394  90.2%     -    0s
     0     0    0.39394    0   15    4.00000    0.39394  90.2%     -    0s
     0     0    1.00000    0    7    4.00000    1.00000  75.0%     -    0s
     0     0    1.00000    0    5    4.00000    1.00000  75.0%     -    0s
     0     0    1.00000    0    3    4.00000    1.00000  75.0%     -    0s
     0     0    1.00000    0   18    4.00000    1.00000  75.0%     -    0s
     0     0    1.00000    0   26    4.00000    1.00000  75.0%     -    0s
     0     0    1.00000    0   20    4.00000    1.00000  75.0%     -    0s
     0     0    1.00000    0    3    4.00000    1.00000  75.0%     -    0s
     0     0    1.00000    0    3    4.00000    1.00000  75.0%     -    0s
     0     2    1.00000    0    3    4.00000    1.00000  75.0%     -    0s

Cutting planes:
  Gomory: 2
  Cover: 39
  Implied bound: 39
  Clique: 12
  MIR: 13
  StrongCG: 3
  Inf proof: 1
  RLT: 8

Explored 149 nodes (2836 simplex iterations) in 0.15 seconds (0.15 work units)
Thread count was 12 (of 12 available processors)

Solution count 2: 4 32 

Optimal solution found (tolerance 1.00e-04)
Best objective 4.000000000000e+00, best bound 4.000000000000e+00, gap 0.0000%
